p cnf 258 388
-130 127 0
-130 128 0
130 -127 -128 0
-131 119 0
-131 120 0
131 -119 -120 0
-132 115 0
-132 116 0
132 -115 -116 0
-133 113 0
-133 114 0
133 -113 -114 0
-134 109 0
-134 110 0
134 -109 -110 0
-135 107 0
-135 108 0
135 -107 -108 0
-136 105 0
-136 106 0
136 -105 -106 0
-137 99 0
-137 100 0
137 -99 -100 0
-138 95 0
-138 96 0
138 -95 -96 0
-139 93 0
-139 94 0
139 -93 -94 0
-140 91 0
-140 92 0
140 -91 -92 0
-141 83 0
-141 84 0
141 -83 -84 0
-142 77 0
-142 78 0
142 -77 -78 0
-143 75 0
-143 76 0
143 -75 -76 0
-144 71 0
-144 72 0
144 -71 -72 0
-145 69 0
-145 70 0
145 -69 -70 0
-146 67 0
-146 68 0
146 -67 -68 0
-147 65 0
-147 66 0
147 -65 -66 0
-148 -146 0
-148 -147 0
148 146 147 0
-149 -145 0
-149 148 0
149 145 -148 0
-150 -144 0
-150 149 0
150 144 -149 0
-151 73 0
-151 74 0
151 -73 -74 0
-152 150 0
-152 -151 0
152 -150 151 0
-153 -143 0
-153 152 0
153 143 -152 0
-154 -142 0
-154 153 0
154 142 -153 0
-155 79 0
-155 80 0
155 -79 -80 0
-156 154 0
-156 -155 0
156 -154 155 0
-157 81 0
-157 82 0
157 -81 -82 0
-158 156 0
-158 -157 0
158 -156 157 0
-159 -141 0
-159 158 0
159 141 -158 0
-160 85 0
-160 86 0
160 -85 -86 0
-161 159 0
-161 -160 0
161 -159 160 0
-162 87 0
-162 88 0
162 -87 -88 0
-163 161 0
-163 -162 0
163 -161 162 0
-164 89 0
-164 90 0
164 -89 -90 0
-165 163 0
-165 -164 0
165 -163 164 0
-166 -140 0
-166 165 0
166 140 -165 0
-167 -139 0
-167 166 0
167 139 -166 0
-168 -138 0
-168 167 0
168 138 -167 0
-169 97 0
-169 98 0
169 -97 -98 0
-170 168 0
-170 -169 0
170 -168 169 0
-171 -137 0
-171 170 0
171 137 -170 0
-172 101 0
-172 102 0
172 -101 -102 0
-173 171 0
-173 -172 0
173 -171 172 0
-174 103 0
-174 104 0
174 -103 -104 0
-175 173 0
-175 -174 0
175 -173 174 0
-176 -136 0
-176 175 0
176 136 -175 0
-177 -135 0
-177 176 0
177 135 -176 0
-178 -134 0
-178 177 0
178 134 -177 0
-179 111 0
-179 112 0
179 -111 -112 0
-180 178 0
-180 -179 0
180 -178 179 0
-181 -133 0
-181 180 0
181 133 -180 0
-182 -132 0
-182 181 0
182 132 -181 0
-183 117 0
-183 118 0
183 -117 -118 0
-184 182 0
-184 -183 0
184 -182 183 0
-185 -131 0
-185 184 0
185 131 -184 0
-186 121 0
-186 122 0
186 -121 -122 0
-187 185 0
-187 -186 0
187 -185 186 0
-188 123 0
-188 124 0
188 -123 -124 0
-189 187 0
-189 -188 0
189 -187 188 0
-190 125 0
-190 126 0
190 -125 -126 0
-191 189 0
-191 -190 0
191 -189 190 0
-192 -130 0
-192 191 0
192 130 -191 0
-193 -129 0
-193 -192 0
193 129 192 0
-194 63 0
-194 64 0
194 -63 -64 0
-195 61 0
-195 62 0
195 -61 -62 0
-196 59 0
-196 60 0
196 -59 -60 0
-197 55 0
-197 56 0
197 -55 -56 0
-198 53 0
-198 54 0
198 -53 -54 0
-199 51 0
-199 52 0
199 -51 -52 0
-200 41 0
-200 42 0
200 -41 -42 0
-201 39 0
-201 40 0
201 -39 -40 0
-202 35 0
-202 36 0
202 -35 -36 0
-203 29 0
-203 30 0
203 -29 -30 0
-204 25 0
-204 26 0
204 -25 -26 0
-205 21 0
-205 22 0
205 -21 -22 0
-206 13 0
-206 14 0
206 -13 -14 0
-207 9 0
-207 10 0
207 -9 -10 0
-208 7 0
-208 8 0
208 -7 -8 0
-209 1 0
-209 2 0
209 -1 -2 0
-210 3 0
-210 4 0
210 -3 -4 0
-211 -209 0
-211 -210 0
211 209 210 0
-212 5 0
-212 6 0
212 -5 -6 0
-213 211 0
-213 -212 0
213 -211 212 0
-214 -208 0
-214 213 0
214 208 -213 0
-215 -207 0
-215 214 0
215 207 -214 0
-216 11 0
-216 12 0
216 -11 -12 0
-217 215 0
-217 -216 0
217 -215 216 0
-218 -206 0
-218 217 0
218 206 -217 0
-219 15 0
-219 16 0
219 -15 -16 0
-220 218 0
-220 -219 0
220 -218 219 0
-221 17 0
-221 18 0
221 -17 -18 0
-222 220 0
-222 -221 0
222 -220 221 0
-223 19 0
-223 20 0
223 -19 -20 0
-224 222 0
-224 -223 0
224 -222 223 0
-225 -205 0
-225 224 0
225 205 -224 0
-226 23 0
-226 24 0
226 -23 -24 0
-227 225 0
-227 -226 0
227 -225 226 0
-228 -204 0
-228 227 0
228 204 -227 0
-229 27 0
-229 28 0
229 -27 -28 0
-230 228 0
-230 -229 0
230 -228 229 0
-231 -203 0
-231 230 0
231 203 -230 0
-232 31 0
-232 32 0
232 -31 -32 0
-233 231 0
-233 -232 0
233 -231 232 0
-234 33 0
-234 34 0
234 -33 -34 0
-235 233 0
-235 -234 0
235 -233 234 0
-236 -202 0
-236 235 0
236 202 -235 0
-237 37 0
-237 38 0
237 -37 -38 0
-238 236 0
-238 -237 0
238 -236 237 0
-239 -201 0
-239 238 0
239 201 -238 0
-240 -200 0
-240 239 0
240 200 -239 0
-241 43 0
-241 44 0
241 -43 -44 0
-242 240 0
-242 -241 0
242 -240 241 0
-243 45 0
-243 46 0
243 -45 -46 0
-244 242 0
-244 -243 0
244 -242 243 0
-245 47 0
-245 48 0
245 -47 -48 0
-246 244 0
-246 -245 0
246 -244 245 0
-247 49 0
-247 50 0
247 -49 -50 0
-248 246 0
-248 -247 0
248 -246 247 0
-249 -199 0
-249 248 0
249 199 -248 0
-250 -198 0
-250 249 0
250 198 -249 0
-251 -197 0
-251 250 0
251 197 -250 0
-252 57 0
-252 58 0
252 -57 -58 0
-253 251 0
-253 -252 0
253 -251 252 0
-254 -196 0
-254 253 0
254 196 -253 0
-255 -195 0
-255 254 0
255 195 -254 0
-256 -194 0
-256 255 0
256 194 -255 0
-257 129 0
-257 -256 0
257 -129 256 0
-258 -193 0
-258 -257 0
258 193 257 0
-258 0
